
  27    0


   0  14 2 3 4 5 6 8 10 20 21 22 23 24 25 26 
   8   5 19 14 13 12 9 
   9   5 17 15 13 12 11 
   5   3 18 13 7 
   4   3 16 14 7 
   6   3 14 13 11 
   2   2 12 11 
   2   2 17 11 
   4   1 15 
   4   1 16 
   3   1 27
   8   1 27
   9   1 27
   7   1 27
   7   1 27
   6   1 27
   6   1 27
   7   1 27
   3   1 27
   9   1 27
   4   1 27
   7   1 27
  10   1 27
   2   1 27
   7   1 27
   4   1 27
   0   0 
